(set-logic QF_S)
(declare-fun var0 () Int)
(declare-fun var1 () Int)
(declare-fun var2 () String)
(declare-fun var3 () String)
(declare-fun var4 () String)
(declare-fun var5 () String)
(declare-fun var6 () Int)
(declare-fun var7 () Int)
(assert (>= var0 var1))
(assert (> (str.to.int var2) (str.to.int var3)))
(assert (str.contains (str.replace var4 var5 var2) (str.substr "u0r|Kl5" var6 74)))
(assert (<= var7 var0))
(check-sat)